int: n = 20;

array [int, int] of int: adyacencia_sem1 = [|0,0,0,1,1,1,1,1,0,1,1,0,0,0,1,1,1,1,0,0|0,0,0,0,1,0,1,1,1,1,0,0,0,0,0,0,0,0,0,0|0,0,0,1,0,0,0,0,1,0,0,1,0,0,0,0,1,0,1,1|1,0,1,0,1,0,0,1,0,1,0,1,1,0,1,1,0,0,1,0|1,1,0,1,0,0,1,0,1,0,0,0,0,0,0,1,0,0,1,0|1,0,0,0,0,0,1,0,0,0,0,0,0,0,0,1,0,1,0,0|1,1,0,0,1,1,0,0,0,0,0,1,1,0,0,0,0,0,0,0|1,1,0,1,0,0,0,0,0,0,0,0,0,0,1,0,1,0,0,0|0,1,1,0,1,0,0,0,0,0,0,1,0,1,0,0,0,1,0,1|1,1,0,1,0,0,0,0,0,0,1,0,0,0,1,0,0,0,0,1|1,0,0,0,0,0,0,0,0,1,0,1,0,1,0,0,0,0,1,1|0,0,1,1,0,0,1,0,1,0,1,0,0,1,0,0,0,0,0,0|0,0,0,1,0,0,1,0,0,0,0,0,0,0,0,1,0,0,0,0|0,0,0,0,0,0,0,0,1,0,1,1,0,0,0,0,1,0,0,0|1,0,0,1,0,0,0,1,0,1,0,0,0,0,0,1,1,0,1,1|1,0,0,1,1,1,0,0,0,0,0,0,1,0,1,0,0,0,0,0|1,0,1,0,0,0,0,1,0,0,0,0,0,1,1,0,0,0,0,1|1,0,0,0,0,1,0,0,1,0,0,0,0,0,0,0,0,0,1,1|0,0,1,1,1,0,0,0,0,0,1,0,0,0,1,0,0,1,0,0|0,0,1,0,0,0,0,0,1,1,1,0,0,0,1,0,1,1,0,0|]; % semilla 0

array [int, int] of int: adyacencia_sem2 = [|0,0,0,0,0,0,0,1,1,0,1,1,1,0,0,0,0,0,0,1|0,0,1,1,1,1,0,0,0,1,1,1,0,0,0,1,0,0,0,0|0,1,0,0,0,0,1,1,0,1,0,0,0,1,0,0,0,0,0,0|0,1,0,0,0,0,1,0,1,1,1,0,0,0,0,0,0,1,1,1|0,1,0,0,0,0,0,0,0,0,1,0,0,0,1,0,0,0,0,0|0,1,0,0,0,0,0,0,1,0,0,1,0,1,0,0,0,0,1,0|0,0,1,1,0,0,0,1,0,1,0,1,1,0,0,0,1,0,0,0|1,0,1,0,0,0,1,0,0,0,0,0,1,0,1,0,0,0,1,1|1,0,0,1,0,1,0,0,0,1,0,1,0,0,1,0,0,0,0,1|0,1,1,1,0,0,1,0,1,0,0,0,0,0,0,0,1,1,1,0|1,1,0,1,1,0,0,0,0,0,0,0,1,1,1,0,1,0,0,1|1,1,0,0,0,1,1,0,1,0,0,0,1,0,0,0,1,0,1,0|1,0,0,0,0,0,1,1,0,0,1,1,0,1,0,0,1,0,0,0|0,0,1,0,0,1,0,0,0,0,1,0,1,0,0,1,0,0,1,0|0,0,0,0,1,0,0,1,1,0,1,0,0,0,0,1,0,0,1,1|0,1,0,0,0,0,0,0,0,0,0,0,0,1,1,0,0,1,0,0|0,0,0,0,0,0,1,0,0,1,1,1,1,0,0,0,0,1,1,1|0,0,0,1,0,0,0,0,0,1,0,0,0,0,0,1,1,0,0,0|0,0,0,1,0,1,0,1,0,1,0,1,0,1,1,0,1,0,0,0|1,0,0,1,0,0,0,1,1,0,1,0,0,0,1,0,1,0,0,0|]; % semilla 33


array [int, int] of int: adyacencia_sem3 = [|0,1,1,0,1,0,1,0,1,0,0,1,0,0,0,0,0,0,1,1|1,0,0,1,0,1,0,0,1,0,0,1,0,0,0,0,0,0,1,0|1,0,0,0,1,0,1,1,0,0,0,1,0,1,0,0,0,0,0,0|0,1,0,0,0,0,0,0,0,1,1,0,0,0,0,0,1,1,0,1|1,0,1,0,0,0,1,0,1,1,0,0,0,0,1,1,0,0,0,0|0,1,0,0,0,0,0,1,0,1,0,1,0,0,0,0,0,0,0,0|1,0,1,0,1,0,0,1,1,0,1,1,1,1,0,0,1,0,1,1|0,0,1,0,0,1,1,0,0,0,0,1,0,1,1,0,1,1,0,0|1,1,0,0,1,0,1,0,0,0,0,0,1,0,1,0,0,0,0,0|0,0,0,1,1,1,0,0,0,0,0,1,1,0,1,1,0,0,0,0|0,0,0,1,0,0,1,0,0,0,0,0,0,0,1,0,0,0,1,0|1,1,1,0,0,1,1,1,0,1,0,0,0,0,0,0,1,0,0,1|0,0,0,0,0,0,1,0,1,1,0,0,0,0,1,1,0,0,1,0|0,0,1,0,0,0,1,1,0,0,0,0,0,0,0,1,0,1,0,0|0,0,0,0,1,0,0,1,1,1,1,0,1,0,0,0,0,1,1,1|0,0,0,0,1,0,0,0,0,1,0,0,1,1,0,0,0,0,0,0|0,0,0,1,0,0,1,1,0,0,0,1,0,0,0,0,0,0,0,1|0,0,0,1,0,0,0,1,0,0,0,0,0,1,1,0,0,0,0,0|1,1,0,0,0,0,1,0,0,0,1,0,1,0,1,0,0,0,0,0|1,0,0,1,0,0,1,0,0,0,0,1,0,0,1,0,1,0,0,0|]; % semilla 42